Name: Asp-Leu
Synon: $:00in-source
DB#: 20230125000001
InChIKey: ZVDPYSVOZFINEE-BQBZGAKWSA-N
Precursor_type: [M-H]-
Spectrum_type: MS2
PrecursorMZ: 245.1142952
Ion_mode: N
Formula: C10H18N2O5
MW: 246
ExactMass: 246.12157167599997
Comments: "SMILES=CC(C)CC(NC(=O)C(N)CC(=O)O)C(=O)O" "computed SMILES=O=C(O)CC(N)C(=O)NC(C(=O)O)CC(C)C" "computed InChI=InChI=1S/C10H18N2O5/c1-5(2)3-7(10(16)17)12-9(15)6(11)4-8(13)14/h5-7H,3-4,11H2,1-2H3,(H,12,15)(H,13,14)(H,16,17)" "computed [2M+H-H2O]+=475.23577335199997" "computed [2M+K]+=531.3414433519999" "computed [M+H]+=247.12954167599997" "computed [2M+Na]+=515.232913352" "computed [2M+Cl]-=527.6961433519999" "computed [2M+HAc-H]-=551.287173352" "computed [M-H20-H]-=227.10318167599996" "computed [M-H]-=245.11429567599998" "computed [2M-H]-=491.23586735199996" "computed [M+Na]+=269.111341676" "computed [M+H-H2O]+=229.11420167599996" "computed [2M+NH4]+=510.281723352" "computed [M+Cl]-=281.574571676" "computed [M+NH4]+=264.160151676" "computed [M+K]+=285.21987167599997" "computed [2M+H]+=493.25111335199995" "computed [M+HAc-H]-=305.165601676" "retention time=1.970333333333" "formula=C10H18N2O5" "exact mass=246.121571676" "spectrum entropy=2.461477279663086" "normalized entropy=0.2743190584231796" "origin=dipep_neg.msp" "computed spectral entropy=2.461476724971006" "computed normalized entropy=0.7237088733051092" "computed mass accuracy=0.0019419511879691157" "computed mass error=-4.7599999675185245E-7" "SPLASH=splash10-001i-2900000000-a7b366ee9aa16a2bc070" "submitter=submitter = Fanzhou Kong (Fiehnlab UC Davis )" "MoNA Rating=3.5"
Num Peaks: 30
42.008639843210766 0.08823507
55.02012584321077 0.0147055
61.983679843210766 0.00635041
66.03890884321076 0.00635041
68.01165684321077 0.00635041
70.02518384321077 0.00635041
72.04782784321077 0.00635041
82.05794484321076 0.02840918
83.01315984321077 0.00635041
85.06520784321077 0.00635041
87.05847884321076 0.02941204
96.01039084321077 0.0147055
97.03347684321076 0.00635041
98.02307084321077 0.00635041
109.01685984321077 0.05147081
110.02498584321077 0.02941204
112.08257184321077 0.0147055
113.03448384321077 0.11731283
114.02993684321076 0.0147055
114.09063684321077 0.00635041
123.03018884321077 0.0147055
126.03900884321077 0.04411754
130.0871188432108 0.36931723
138.0920018432108 0.02205877
140.08425084321078 0.05147081
141.09766284321077 0.00635041
156.09830384321077 0.00635041
157.1275088432108 0.00635041
165.10581184321077 0.00635041
166.09189484321078 0.00635041

