Name: Citrulline :: Carboxylic Acids :: Polar Metabolites :: (2S)-2-azaniumyl-5-(carbamoylamino)pentanoate)
Synon: $:00in-source
DB#: Human_Plasma000032
Precursor_type: [M-H]-
PrecursorMZ: 174.0884
Comments: "pubchem compound cid=6992098" "formula=C6H13N3O3" "origin=Plasma_MS2_Library_32metabolites.msp" "computed spectral entropy=1.0965479031929743" "computed normalized entropy=0.32564644110802077" "SPLASH=splash10-001i-2900000000-453d1ecaf549cf467b7a" "submitter=submitter = Prasad Phapale (ISAS Dortmund)"
Num Peaks: 31
41.4282 0.103123
41.9984 0.271958
48.7682 0.119104
58.0297 0.122997
61.9127 0.122199
61.9884 0.309625
68.7547 0.108322
78.1828 0.129375
78.2602 0.111453
80.2409 0.110870
85.0296 7.879546
86.0329 15.771919
88.0402 0.174949
90.8341 0.120299
95.1651 0.119146
111.0089 0.422444
112.0122 1.680531
123.7071 0.110391
129.0195 0.741279
130.0228 3.287853
131.0827 100.000000
144.0456 0.118398
155.9470 1.565267
156.0753 0.340825
157.0623 0.160441
159.0329 0.406245
167.3838 0.128964
174.0123 0.235042
174.0419 0.147333
174.0560 0.483585
174.0892 0.821747


Name: Aspartic Acid :: Carboxylic Acids :: Polar Metabolites :: (3S)-3-azaniumyl-4-hydroxy-4-oxobutanoate)
Synon: $:00in-source
DB#: Human_Plasma000031
Precursor_type: [M-H]-
PrecursorMZ: 132.0303
Comments: "pubchem compound cid=44367445" "formula=C4H7NO4" "origin=Plasma_MS2_Library_32metabolites.msp" "computed spectral entropy=1.481474552283401" "computed normalized entropy=0.43557441278500825" "SPLASH=splash10-0019-8900000000-cce76fa6bf965043e5a4" "submitter=submitter = Prasad Phapale (ISAS Dortmund)"
Num Peaks: 32
43.4305 0.346722
43.7611 0.296653
47.0914 0.313897
48.7270 0.266324
49.4980 0.589448
51.0901 0.298699
51.8208 0.244663
62.8110 0.332536
65.7891 0.307108
66.0161 0.298790
68.5021 0.286979
70.0394 0.301287
71.0139 11.476395
74.0330 0.382630
81.4200 0.265285
83.4585 0.281458
84.1660 0.338978
86.0327 0.336849
88.0405 100.000000
93.3987 0.308300
94.2324 0.282928
98.3124 0.258350
103.0531 0.334622
112.7413 0.300140
114.0197 7.406264
114.0391 0.370000
115.0038 33.180945
115.0092 0.843851
116.8792 0.278577
125.3833 0.302201
128.4641 0.276369
132.0304 77.955316


Name: Glutamic Acid :: Carboxylic Acids :: Polar Metabolites :: (2S)-2-aminopentanedioic acid)
Synon: $:00in-source
DB#: Human_Plasma000030
Precursor_type: [M-H]-
PrecursorMZ: 146.0459
Comments: "pubchem compound cid=33032" "formula=C5H9NO4" "origin=Plasma_MS2_Library_32metabolites.msp" "computed spectral entropy=1.2819648358531177" "computed normalized entropy=0.34992309661485943" "SPLASH=splash10-0ufs-0900000000-fadd70114050e9adaf65" "submitter=submitter = Prasad Phapale (ISAS Dortmund)"
Num Peaks: 50
47.0405 0.008945
47.7485 0.009465
48.7845 0.008718
49.5406 0.009586
54.4394 0.011025
57.0345 0.113020
58.0379 0.157478
59.0139 0.020261
61.9884 0.094659
63.2391 0.012173
66.0097 1.464856
66.7696 0.009270
69.6416 0.008695
71.0140 0.084685
74.0248 0.447639
74.5876 0.009777
81.2728 0.008917
82.0298 0.021027
84.0455 0.608194
84.0539 0.033261
84.4686 0.010320
85.0296 1.151027
89.3444 0.010460
91.9454 0.008682
92.0129 0.362310
93.0207 0.043341
100.0406 0.481675
101.0246 0.705007
102.0279 0.797118
102.0350 0.014729
102.0491 0.261613
102.0562 100.000000
110.0443 0.239346
117.0213 0.086136
118.0162 0.342021
118.0299 0.340164
119.0238 0.530186
120.0321 0.061549
121.4962 0.008793
128.0261 0.045101
128.0354 58.805736
128.0546 0.494898
129.0193 0.219700
129.8570 0.009770
145.0271 0.731960
145.0336 0.019321
146.0177 0.050770
146.0248 0.658409
146.0358 0.734567
146.0461 52.971930


Name: Aconitic Acid :: Carboxylic Acids :: Polar Metabolites :: (E)-prop-1-ene-1,2,3-tricarboxylic acid)
Synon: $:00in-source
DB#: Human_Plasma000029
Precursor_type: [M-H]-
PrecursorMZ: 173.0091
Comments: "pubchem compound cid=444212" "formula=C6H6O6" "origin=Plasma_MS2_Library_32metabolites.msp" "computed spectral entropy=1.0293802486988237" "computed normalized entropy=0.2809780066854636" "SPLASH=splash10-000i-9300000000-daa1a638a6d2de041645" "submitter=submitter = Prasad Phapale (ISAS Dortmund)"
Num Peaks: 50
41.0396 0.018029
43.8534 0.010168
46.3339 0.010407
46.7663 0.009299
48.0032 0.010172
50.8648 0.010721
54.3273 0.010878
55.9481 0.009469
57.0346 0.017071
58.3975 0.009491
58.9003 0.009263
59.0137 0.117232
67.0192 0.042920
72.9932 0.009886
73.0296 0.020683
75.0088 0.023137
76.9701 0.072672
77.2212 0.012732
83.0505 0.013741
85.0245 0.014460
85.0295 100.000000
87.0089 0.041858
89.0244 0.063229
93.0459 0.103468
101.1141 0.011374
107.2955 0.009367
111.0089 8.715719
111.0453 0.042306
111.0816 0.858686
127.1126 0.011050
128.1157 0.010102
129.0194 17.320964
129.0259 0.072713
129.0556 0.090259
129.0922 0.084932
129.1033 0.013465
131.0826 0.044158
133.6822 0.009523
140.5860 0.009863
141.7317 0.012689
146.0349 0.018339
154.9393 0.016381
154.9475 10.320436
154.9553 0.010006
155.0346 0.026740
155.0721 0.009395
172.9577 0.994961
172.9928 0.075320
173.0023 0.046425
173.0098 1.206238


Name: 3-Methyl-L-Histidine :: Amino Acids :: Polar Metabolites :: (2S)-2-amino-3-(3-methylimidazol-4-yl)propanoic acid)
Synon: $:00in-source
DB#: Human_Plasma000028
Precursor_type: [M-H]-
PrecursorMZ: 168.0779
Comments: "pubchem compound cid=64969" "formula=C7H11N3O2" "origin=Plasma_MS2_Library_32metabolites.msp" "computed spectral entropy=1.2281264430592804" "computed normalized entropy=0.3307129688072025" "SPLASH=splash10-014i-0900000000-479ba8e94e9eee4e7eb8" "submitter=submitter = Prasad Phapale (ISAS Dortmund)"
Num Peaks: 50
40.7979 0.019407
42.9144 0.028497
46.1198 0.020877
46.8637 0.031574
48.0007 0.020653
53.1976 0.018857
53.6113 0.020302
55.3360 0.019535
60.3976 0.019183
61.9884 0.768064
69.4825 0.019429
71.1854 0.019554
72.0091 11.598889
73.0296 0.036151
74.0330 0.025747
79.2041 0.021053
81.0459 0.037491
82.9543 1.340145
83.8036 0.019117
95.0615 0.031646
100.0407 0.218724
101.4480 0.019576
103.6902 0.019933
107.0615 3.426739
108.0454 0.034978
110.9537 0.020852
122.0612 0.772896
122.0724 0.273103
124.0404 0.132873
128.7851 0.019152
134.8609 0.030735
136.4215 0.020030
138.0554 0.229494
140.0333 0.033682
143.8651 0.018831
149.9726 0.053451
150.0562 3.084613
150.0675 2.521129
151.0213 0.036811
151.0435 0.019309
151.0513 41.300796
158.5581 0.018966
166.0510 0.675867
167.9835 0.142898
167.9994 0.020782
168.0266 0.512585
168.0317 0.460477
168.0473 0.067587
168.0677 0.045185
168.0778 100.000000


Name: Serine :: Carboxylic Acids :: Polar Metabolites :: (2S)-2-amino-3-hydroxypropanoic acid)
Synon: $:00in-source
DB#: Human_Plasma000027
Precursor_type: [M-H]-
PrecursorMZ: 104.0354
Comments: "pubchem compound cid=5951" "formula=C3H7NO3" "origin=Plasma_MS2_Library_32metabolites.msp" "computed spectral entropy=0.7387779735490907" "computed normalized entropy=0.1908394762936449" "SPLASH=splash10-0fk9-9600000000-c553ad77d06571236d82" "submitter=submitter = Prasad Phapale (ISAS Dortmund)"
Num Peaks: 50
40.1724 0.007402
40.5564 0.007834
40.9162 0.017298
41.5384 0.007776
42.6559 0.007076
42.9831 0.007682
43.6336 0.007229
44.1791 0.007841
45.0455 0.008912
45.1344 0.008194
45.2779 0.007332
45.4323 0.008998
45.8476 0.008270
46.6881 0.007804
47.6609 0.007471
49.5093 0.007760
51.8072 0.006906
53.0052 0.007203
53.9976 0.008316
54.5003 0.006999
55.1378 0.007828
55.4552 0.011507
55.5446 0.006979
58.0298 0.230977
58.3768 0.007140
59.0140 0.054093
59.5749 0.007164
60.0172 0.098820
61.5539 0.007277
61.9885 0.011382
65.5175 0.007081
65.7292 0.006966
66.0816 0.007433
66.5696 0.007332
67.3797 0.008375
69.1262 0.006895
70.7462 0.007270
71.6885 0.010626
72.0092 0.419687
72.5135 0.007271
74.0248 100.000000
79.7627 0.008283
81.1938 0.008108
84.6431 0.007453
85.2632 0.007883
94.3493 0.007041
102.0199 0.130158
104.0130 2.034943
104.0281 0.109837
104.0354 72.526755


Name: Asparagine :: Carboxylic Acids :: Polar Metabolites :: (2S)-2,4-diamino-4-oxobutanoic acid)
Synon: $:00in-source
DB#: Human_Plasma000026
Precursor_type: [M-H]-
PrecursorMZ: 131.0463
Comments: "pubchem compound cid=6267" "formula=C4H8N2O3" "origin=Plasma_MS2_Library_32metabolites.msp" "computed spectral entropy=2.0883776352844188" "computed normalized entropy=0.5587378897987152" "SPLASH=splash10-03di-4900000000-ade617cf00eb5cc45066" "submitter=submitter = Prasad Phapale (ISAS Dortmund)"
Num Peaks: 50
40.9662 0.034405
41.9984 3.268082
43.0189 0.056837
44.3658 0.022341
44.5767 0.020662
44.7840 0.038759
44.9982 0.151665
45.3341 0.020214
48.4854 0.020071
51.4772 0.034147
54.0656 0.019690
57.0345 1.798760
57.6666 0.019807
57.7654 0.020885
58.0298 4.042777
59.0138 2.020614
61.3143 0.021145
61.3379 0.035832
63.4473 0.019776
69.0347 1.427465
69.3343 0.020612
70.0299 34.713038
71.0139 2.521458
71.0252 0.666375
72.0092 10.806042
73.0295 11.385039
75.0090 0.942908
83.0140 0.190394
83.3358 0.019794
85.0296 7.865650
85.0408 0.339125
85.0659 1.099474
87.0452 18.119967
87.0563 0.848926
89.0245 0.086603
91.3989 0.020432
93.2133 0.021875
95.0252 17.596074
96.0092 0.320428
100.2394 0.021108
101.0244 4.331130
103.0344 0.020030
113.0248 6.604410
113.0358 92.021029
114.0198 100.000000
121.1654 0.020304
130.9314 0.136958
131.0246 0.654321
131.0352 11.779716
131.0462 49.820747


Name: Glutamine :: Carboxylic Acids :: Polar Metabolites :: (2S)-2,5-diamino-5-oxopentanoic acid)
Synon: $:00in-source
DB#: Human_Plasma000025
Precursor_type: [M-H]-
PrecursorMZ: 145.0619
Comments: "pubchem compound cid=5961" "formula=C5H10N2O3" "origin=Plasma_MS2_Library_32metabolites.msp" "computed spectral entropy=1.860383666119278" "computed normalized entropy=0.5078073868593619" "SPLASH=splash10-004j-1900000000-2650511f63bd4bb1b0f3" "submitter=submitter = Prasad Phapale (ISAS Dortmund)"
Num Peaks: 50
41.9984 2.887980
43.7642 0.015767
44.7280 0.022851
53.1024 0.015727
57.0346 1.917538
58.0298 2.276888
59.0138 0.080466
66.0099 0.030161
67.0302 0.942501
68.6616 0.016347
70.0299 0.526220
71.5850 0.027264
71.8973 0.015261
72.0458 0.019794
73.0296 0.361098
74.0248 9.081621
77.7235 0.017028
82.0300 1.658627
83.0141 0.123923
83.0503 0.505724
83.0614 0.039845
84.0456 12.231727
85.0297 0.024797
86.0248 2.056535
86.1102 0.015466
87.0089 0.110268
97.0406 0.034542
99.0565 2.294716
100.0407 0.101511
101.0245 7.489919
101.0609 0.621275
101.0659 0.018708
101.0721 10.902940
102.0562 0.023811
102.5557 0.015571
103.5035 0.020081
109.0310 0.020780
109.0409 38.156499
110.0250 0.023116
117.0209 0.048877
127.0416 0.038247
127.0514 100.000000
128.0354 29.724350
141.7668 0.017691
144.0316 0.152805
145.0146 0.843249
145.0271 0.516346
145.0413 0.051272
145.0505 0.299474
145.0619 96.819139


Name: Succinic Acid :: Carboxylic Acids :: Polar Metabolites :: butanedioic acid)
Synon: $:00in-source
DB#: Human_Plasma000024
Precursor_type: [M-H]-
PrecursorMZ: 117.0194
Comments: "pubchem compound cid=1110" "formula=C4H6O4" "origin=Plasma_MS2_Library_32metabolites.msp" "computed spectral entropy=1.3070329876820712" "computed normalized entropy=0.3475042399973593" "SPLASH=splash10-00xr-9500000000-1954a12138d2253d58ee" "submitter=submitter = Prasad Phapale (ISAS Dortmund)"
Num Peaks: 50
41.0010 0.029353
41.0603 0.014842
43.1556 0.022192
44.9981 0.049762
47.0804 0.024842
47.2857 0.029012
47.3554 0.015350
49.8155 0.014821
50.7932 0.014333
52.0708 0.014274
52.9761 0.018761
53.1909 0.030735
53.4450 0.014408
55.0188 0.373060
55.3186 0.026139
55.5425 0.014980
56.0437 0.014426
58.5462 0.015090
58.8139 0.020624
59.0138 2.732875
59.4256 0.015895
64.3925 0.018941
65.0910 0.023226
67.0915 0.021394
69.4440 0.019416
70.5133 0.017250
71.0139 1.442324
71.0503 1.601929
71.3761 0.019372
73.0295 100.000000
73.0795 0.018267
74.2386 0.021943
75.0088 0.043316
79.9165 0.020281
87.0088 0.412470
87.0451 0.432288
89.0144 0.023939
89.0245 0.221384
90.0098 0.336593
90.0179 0.249533
94.4755 0.017474
99.0088 11.196872
99.9258 0.511588
105.0379 0.018203
107.5944 0.022614
114.4185 0.014448
116.9287 16.037155
116.9346 0.021576
117.0112 0.037453
117.0196 58.226854


Name: Succinic Acid :: Carboxylic Acids :: Polar Metabolites :: butanedioic acid)
Synon: $:00in-source
DB#: Human_Plasma000023
Precursor_type: [M-H]-
PrecursorMZ: 117.0195
Comments: "pubchem compound cid=1110" "formula=C4H6O4" "origin=Plasma_MS2_Library_32metabolites.msp" "computed spectral entropy=1.252563785272148" "computed normalized entropy=0.33511891450893505" "SPLASH=splash10-00xr-9500000000-636d08b7d4495f482b1c" "submitter=submitter = Prasad Phapale (ISAS Dortmund)"
Num Peaks: 50
40.7073 0.012691
41.0026 0.014321
41.0583 0.012879
42.0004 0.014987
42.0195 0.015075
42.2074 0.014042
42.5126 0.014503
42.7158 0.013757
43.0189 0.019216
44.5897 0.018676
44.9980 0.092746
45.6662 0.015591
50.2235 0.013114
50.7236 0.014375
51.5092 0.013491
52.7698 0.014103
52.7901 0.016307
55.0189 0.365122
59.0138 2.354837
59.6267 0.012750
60.2587 0.016359
61.6692 0.013559
65.0033 0.016729
66.4993 0.012844
71.0140 1.328540
71.0503 1.705204
73.0295 100.000000
75.0089 0.073729
77.6745 0.014520
79.2685 0.012505
85.7902 0.012509
86.1958 0.014870
87.0090 0.417560
87.0454 0.385823
87.1379 0.013476
88.0159 0.019251
89.0145 0.022681
89.0245 0.338839
90.0100 0.161697
90.0182 0.110944
92.7958 0.016517
96.3885 0.016348
99.0088 10.939074
99.9259 0.363328
106.7718 0.014588
116.7279 0.014172
116.9287 11.204541
116.9345 0.022561
116.9727 0.016492
117.0195 56.374122


Name: Gluconic Acid :: Carbohydrates :: Polar Metabolites :: (2R,3S,4R,5R)-2,3,4,5,6-pentahydroxyhexanoic acid)
Synon: $:00in-source
DB#: Human_Plasma000022
Precursor_type: [M-H]-
PrecursorMZ: 195.0510
Comments: "pubchem compound cid=10690" "formula=C6H12O7" "origin=Plasma_MS2_Library_32metabolites.msp" "computed spectral entropy=2.294380904969704" "computed normalized entropy=0.6178366445452891" "SPLASH=splash10-004j-9800000000-75c5e3d2b1d70131ce74" "submitter=submitter = Prasad Phapale (ISAS Dortmund)"
Num Peaks: 50
44.6628 0.070228
44.8170 0.066204
45.8771 0.072209
45.9722 0.072593
50.5004 0.070486
57.0345 4.861518
59.0138 15.381119
63.9126 0.069662
65.1532 0.050803
68.9958 3.828198
69.0346 0.176835
71.0139 5.091890
72.9932 0.166161
73.0295 0.282376
73.9571 0.048628
75.0088 100.000000
83.0138 0.085190
85.0296 10.443640
87.0088 19.186596
87.0451 0.057104
89.0245 10.705591
97.0296 0.060481
99.0089 34.483545
101.0021 5.607916
101.0245 2.436198
105.0195 0.130280
107.0698 0.244404
111.0090 0.463797
112.9858 12.456422
113.0245 0.355865
119.0350 0.051863
129.0194 57.730421
129.0259 0.343917
130.9927 2.294834
131.0350 0.093417
136.0533 0.088005
141.0189 1.419388
149.0462 0.130261
151.0608 0.099466
152.9452 0.142388
155.7343 0.052420
159.0300 5.543508
160.8420 0.054914
176.8955 2.197619
176.9287 0.098235
177.0404 7.657927
194.9059 3.651166
194.9872 0.416424
195.0334 0.051775
195.0511 92.324747


Name: Phenylalanine :: Phenylpropanoic Acids :: Polar Metabolites :: (2S)-2-amino-3-phenylpropanoic acid)
Synon: $:00in-source
DB#: Human_Plasma000021
Precursor_type: [M-H]-
PrecursorMZ: 164.0717
Comments: "pubchem compound cid=6140" "formula=C9H11NO2" "origin=Plasma_MS2_Library_32metabolites.msp" "computed spectral entropy=1.715702828595975" "computed normalized entropy=0.45071051957104147" "SPLASH=splash10-01ot-2900000000-746d9556a14cd01201cc" "submitter=submitter = Prasad Phapale (ISAS Dortmund)"
Num Peaks: 50
40.9123 0.060730
41.6556 0.061089
44.5538 0.063177
45.2542 0.109167
47.1252 0.067710
47.9674 0.196701
50.0200 0.062301
53.7027 0.067989
54.7760 0.062002
56.6140 0.060821
62.9910 13.264291
63.9447 5.183741
69.7042 0.059778
72.0092 29.871880
73.0172 0.061253
75.0089 0.151853
77.8833 0.059629
85.3994 0.058982
87.4444 0.060008
89.0076 0.102511
91.0554 5.728827
93.0344 0.059039
100.0406 4.471070
100.7792 0.062183
103.0557 1.695121
104.0355 0.920417
105.7824 0.059895
109.3183 0.060598
118.0667 0.115333
119.0278 0.063898
120.0208 0.059037
120.0319 0.100425
120.0455 2.691262
120.0541 0.121804
121.0298 0.169746
124.0075 0.369236
132.0490 3.167365
136.0409 0.437760
137.0358 0.060000
146.0614 0.351365
147.0452 100.000000
147.0529 0.091478
148.3956 0.066625
149.0154 0.716705
158.3549 0.058951
159.3372 0.059617
163.8400 0.499728
164.0212 2.780237
164.0355 5.212203
164.0718 71.368077


Name: Glutarate :: Carboxylic Acids :: Polar Metabolites :: pentanedioic acid)
Synon: $:00in-source
DB#: Human_Plasma000020
Precursor_type: [M-H]-
PrecursorMZ: 131.0350
Comments: "pubchem compound cid=743" "formula=C5H8O4" "origin=Plasma_MS2_Library_32metabolites.msp" "computed spectral entropy=2.1179082632036876" "computed normalized entropy=0.591013553877337" "SPLASH=splash10-000i-9400000000-4f4c2d222c52ba3e0284" "submitter=submitter = Prasad Phapale (ISAS Dortmund)"
Num Peaks: 50
40.0191 0.015828
41.0033 0.519357
41.7967 0.016901
43.0188 1.579794
44.9981 0.852287
48.5213 0.015794
53.5732 0.018798
55.0188 1.071954
56.5700 0.015610
57.0345 13.103133
58.0060 1.100651
59.0138 6.380901
59.0502 0.636013
60.7747 0.016535
67.0189 0.774037
69.0346 8.673709
70.0299 0.092435
71.0139 5.086397
72.0091 0.025931
73.0295 20.899029
75.0088 2.985281
83.0139 1.382950
83.0699 0.023175
84.0216 0.444151
85.0296 36.920176
85.0489 0.017705
85.0660 3.036714
85.0853 0.119984
87.0122 0.075610
87.0340 0.025784
87.0396 0.035796
87.0452 100.000000
88.0405 0.075058
89.0244 0.285156
89.0376 0.052277
89.0440 1.110055
95.0137 1.463185
95.0250 0.047240
99.0089 0.015235
101.0246 8.411381
113.0245 40.267348
113.0360 0.320395
113.0612 0.091866
114.0195 0.272369
114.0641 0.022643
129.0387 0.224447
130.8895 0.204670
130.9316 0.100512
131.0246 0.408014
131.0352 59.179864


Name: Tyrosine :: Phenylpropanoic Acids :: Polar Metabolites :: (2S)-2-amino-3-(4-hydroxyphenyl)propanoic acid)
Synon: $:00in-source
DB#: Human_Plasma000019
Precursor_type: [M-H]-
PrecursorMZ: 180.0665
Comments: "pubchem compound cid=6057" "formula=C9H11NO3" "origin=Plasma_MS2_Library_32metabolites.msp" "computed spectral entropy=2.2870258902969502" "computed normalized entropy=0.6043634467464297" "SPLASH=splash10-01q9-4900000000-773a0903ae2ce9d50052" "submitter=submitter = Prasad Phapale (ISAS Dortmund)"
Num Peaks: 50
43.4542 0.197475
43.6854 0.200405
48.8875 0.195016
52.1127 0.205040
59.0138 35.186231
61.2740 0.226217
71.0139 8.191483
72.0092 19.819425
72.0173 7.858004
73.0295 0.910391
74.0248 6.727037
74.0330 0.487866
74.3571 0.213299
75.0089 1.219621
77.1590 0.236766
77.9646 0.240771
85.0297 0.566273
86.0330 1.056665
87.1423 0.221349
89.0245 9.675464
90.0279 6.618380
92.0506 0.213918
93.0347 16.433210
94.2446 0.219644
96.0172 0.553085
96.8398 0.197894
97.7936 0.201973
101.0247 1.345040
102.0279 1.778801
104.7796 0.217303
105.1650 0.212771
105.1704 0.217287
106.0425 3.849520
107.0503 1.782452
110.0461 0.200242
113.0244 0.257603
114.0279 2.222731
119.0352 0.344706
119.0503 39.608220
120.0387 1.308972
134.0609 0.856643
136.0408 0.804592
136.0768 4.459756
146.0436 0.197990
162.0493 0.851487
162.0562 1.752877
163.0401 78.475115
163.9976 0.199187
165.0434 0.438639
180.0667 100.000000


Name: Quinate :: Carboxylic Acids :: Polar Metabolites :: (3R,5R)-1,3,4,5-tetrahydroxycyclohexane-1-carboxylic acid)
Synon: $:00in-source
DB#: Human_Plasma000018
Precursor_type: [M-H]-
PrecursorMZ: 191.0561
Comments: "pubchem compound cid=6508" "formula=C7H12O6" "origin=Plasma_MS2_Library_32metabolites.msp" "computed spectral entropy=0.9736773149625751" "computed normalized entropy=0.26050384715644403" "SPLASH=splash10-0006-1900000000-79199be5b1b444ced183" "submitter=submitter = Prasad Phapale (ISAS Dortmund)"
Num Peaks: 50
44.9981 0.347949
51.0195 0.038133
54.1176 0.040680
57.0345 0.506994
58.6015 0.043754
59.0138 1.089023
60.9933 0.033241
61.4137 0.046530
62.5018 0.029953
67.0191 0.183182
71.0139 0.664721
72.9930 0.065798
73.0295 0.393827
75.9636 0.030451
80.6089 0.042185
81.0349 0.052445
83.0141 0.034536
83.0506 0.149716
85.0296 6.506245
87.0089 1.585086
89.5231 0.037918
93.0347 1.842037
96.1519 0.040234
97.0299 0.034884
99.0089 0.513008
99.0454 0.253789
101.0246 0.242708
101.0608 0.203286
109.0296 0.484362
109.9075 0.034795
111.0089 0.216650
111.0455 1.141029
117.3944 0.044405
119.3474 0.034020
127.0403 2.457424
129.0193 0.399989
129.0549 0.096577
131.0351 0.049264
137.0243 0.117138
139.0860 0.030272
143.0350 0.040834
147.0453 0.112417
147.0819 0.035062
153.0195 0.080310
155.0352 0.119284
171.0299 0.618191
173.0457 1.616193
189.2565 0.038029
191.0386 0.152854
191.0562 100.000000


Name: Uric acid :: Alkaloids and Derivatives :: Polar Metabolites :: 7,9-dihydro-3H-purine-2,6,8-trione)
Synon: $:00in-source
DB#: Human_Plasma000017
Precursor_type: [M-H]-
PrecursorMZ: 167.0210
Comments: "pubchem compound cid=1175" "formula=C5H4N4O3" "origin=Plasma_MS2_Library_32metabolites.msp" "computed spectral entropy=0.9403896129995948" "computed normalized entropy=0.24424767834405023" "SPLASH=splash10-014i-0900000000-e4b3f734e56c270c8671" "submitter=submitter = Prasad Phapale (ISAS Dortmund)"
Num Peaks: 50
40.2760 0.022604
40.5915 0.016792
41.9985 1.141901
42.0713 0.019779
43.6184 0.046619
45.5105 0.019346
46.9248 0.017054
46.9733 0.021935
48.7498 0.018164
48.9579 0.018202
49.3748 0.022436
49.9812 0.016780
54.7445 0.021211
58.1747 0.018490
59.5161 0.032193
59.5887 0.019398
60.2474 0.021850
62.2932 0.018573
64.5532 0.020963
68.6662 0.022110
69.0095 1.060277
69.2316 0.020645
69.6942 0.021197
70.0698 0.020933
71.9401 0.017727
72.4742 0.020431
76.8393 0.021320
76.8648 0.022569
78.5180 0.016438
79.8987 0.016462
82.5722 0.018894
85.1169 0.020975
96.0204 3.530056
97.0045 1.086009
97.1191 0.017450
97.3585 0.018370
98.0361 0.234979
98.4167 0.018521
112.4302 0.023000
120.4547 0.016795
123.0314 0.813311
124.0153 44.616423
126.7666 0.023126
129.2190 0.023895
142.0260 0.723903
147.3351 0.018157
148.2780 0.020912
162.9753 0.016802
167.0064 0.397996
167.0211 100.000000


Name: Maleic Acid :: Carboxylic Acids :: Polar Metabolites :: (Z)-but-2-enedioic acid)
Synon: $:00in-source
DB#: Human_Plasma000016
Precursor_type: [M-H]-
PrecursorMZ: 115.0038
Comments: "pubchem compound cid=444266" "formula=C4H4O4" "origin=Plasma_MS2_Library_32metabolites.msp" "computed spectral entropy=1.1584835719735869" "computed normalized entropy=0.3099480934073712" "SPLASH=splash10-00di-9200000000-1542a39f5cf239e85e02" "submitter=submitter = Prasad Phapale (ISAS Dortmund)"
Num Peaks: 50
41.0031 0.872313
41.2397 0.070906
41.3551 0.061111
41.9914 0.056597
41.9984 0.164027
43.0188 0.929100
43.6031 0.056951
43.7476 0.056496
44.0029 0.056958
44.5085 0.056416
44.8984 0.068129
44.9981 0.389680
46.1620 0.060643
46.6733 0.056830
46.8643 0.060519
47.6620 0.071713
49.3776 0.064140
51.3497 0.062371
51.6230 0.059486
54.1489 0.057024
56.6135 0.062519
56.8131 0.057376
57.0345 0.110665
59.0138 2.513060
59.0251 0.094466
60.2998 0.056982
61.9878 0.058654
68.9186 0.063163
68.9958 11.730427
69.0346 0.073442
69.0540 0.080598
71.0139 100.000000
71.0503 5.418700
73.0296 0.136466
74.0249 0.168506
78.3072 0.059899
82.1275 0.063282
85.0295 0.321907
87.0089 1.278561
87.0338 0.355364
87.0452 0.288975
97.0296 0.601248
97.1544 0.063890
97.3262 0.065414
100.8908 0.063211
104.0346 0.069869
114.9200 0.535173
114.9342 1.349797
114.9900 1.953081
115.0038 24.480345


Name: Methylglutaric Acid :: Carboxylic Acids :: Polar Metabolites :: 2-methylpentanedioic acid)
Synon: $:00in-source
DB#: Human_Plasma000015
Precursor_type: [M-H]-
PrecursorMZ: 145.0506
Comments: "pubchem compound cid=12046" "formula=C6H10O4" "origin=Plasma_MS2_Library_32metabolites.msp" "computed spectral entropy=1.7915960965208253" "computed normalized entropy=0.5267545206815599" "SPLASH=splash10-0ued-3900000000-5a3fb6c70a556893adb4" "submitter=submitter = Prasad Phapale (ISAS Dortmund)"
Num Peaks: 34
43.1170 0.343505
44.4944 0.406963
46.0809 0.337103
47.9384 0.362162
49.7879 0.354267
50.8321 0.363377
55.9126 0.374323
57.0345 0.511029
59.0138 1.042378
59.9256 0.429399
60.2378 0.380704
66.0098 0.574272
71.0502 1.348906
72.9432 0.638841
73.0295 0.708038
80.9960 0.619782
81.0346 2.039591
83.0503 71.428649
83.2985 0.375288
87.0088 3.682441
97.9228 0.399716
99.0452 1.221564
99.0818 0.538761
101.0246 1.010465
101.0609 100.000000
117.0209 0.874879
118.0153 0.498663
127.0402 9.789472
144.0316 1.551406
144.2710 0.419342
144.8698 51.457802
144.9918 0.428792
145.0270 4.965457
145.0507 57.123387


Name: Pantothenic Acid :: Carboxylic Acids :: Polar Metabolites :: 3-[(2,4-dihydroxy-3,3-dimethylbutanoyl)amino]propanoic acid)
Synon: $:00in-source
DB#: Human_Plasma000014
Precursor_type: [M-H]-
PrecursorMZ: 218.1033
Comments: "pubchem compound cid=988" "formula=C9H17NO5" "origin=Plasma_MS2_Library_32metabolites.msp" "computed spectral entropy=1.9776204279745422" "computed normalized entropy=0.5476780352855927" "SPLASH=splash10-000j-8930000000-731bce3d005015d0fc8b" "submitter=submitter = Prasad Phapale (ISAS Dortmund)"
Num Peaks: 50
59.0138 2.061150
63.9457 0.056032
71.0139 13.225321
71.0503 6.686520
73.0295 1.251461
88.0405 100.000000
89.0246 1.062350
90.0277 0.364136
96.0818 0.270058
97.0294 0.098029
99.0453 1.797773
100.0040 0.192984
101.0072 0.065171
101.0246 1.258963
101.0608 0.056440
102.0279 1.399949
110.0442 0.357792
115.0208 0.632348
116.0241 0.060300
116.0354 1.158368
116.0666 0.057395
116.0718 30.635691
118.0301 0.149919
118.0663 0.056435
119.0350 0.058670
120.0379 0.218799
126.0925 0.086071
128.0354 0.162391
128.0503 0.752242
129.0556 0.916252
130.0663 5.716370
131.0377 0.369009
138.0927 0.112736
144.0459 2.315734
146.0457 0.285092
146.0623 2.851829
146.0823 74.810156
154.0340 0.087822
156.0655 0.085965
158.0819 0.543199
172.0452 0.546915
174.0560 2.532032
174.1290 0.056095
190.0517 0.662772
200.0919 0.170809
202.0788 26.570855
202.0913 0.148370
218.0557 1.306507
218.0891 0.049210
218.1034 16.223333


Name: Phenylalanine :: Phenylpropanoic Acids :: Polar Metabolites :: (2S)-2-amino-3-phenylpropanoic acid)
Synon: $:00in-source
DB#: Human_Plasma000013
Precursor_type: [M-H]-
PrecursorMZ: 164.0717
Comments: "pubchem compound cid=6140" "formula=C9H11NO2" "origin=Plasma_MS2_Library_32metabolites.msp" "computed spectral entropy=1.2463714644351163" "computed normalized entropy=0.3202541147750825" "SPLASH=splash10-01ot-1900000000-aea26c4e8f97d7f0e019" "submitter=submitter = Prasad Phapale (ISAS Dortmund)"
Num Peaks: 50
40.0192 0.063561
40.1743 0.025137
41.5601 0.022370
41.7591 0.023152
44.9981 0.050546
48.7189 0.020339
50.5802 0.020013
52.8959 0.022686
54.2124 0.019611
55.2697 0.023073
57.7110 0.022586
58.8688 0.026050
59.0140 0.023753
61.9885 0.026367
62.5386 0.021062
63.9449 0.230704
72.0092 30.018838
78.4801 0.026712
78.9190 0.067842
88.8527 0.019865
91.0555 4.989574
91.9175 0.019809
96.7126 0.021206
97.6586 0.022061
101.0246 0.031748
102.0280 0.295554
103.0555 2.330886
105.9126 0.022732
109.1898 0.025921
114.0278 0.104911
118.0665 0.193778
118.6474 0.022273
120.0455 0.076770
120.4021 0.024602
121.0295 0.026621
127.8873 0.028494
132.0486 0.099869
134.8196 0.020049
136.7291 0.025344
139.4967 0.019367
141.3781 0.021696
146.0614 0.697467
147.0453 100.000000
150.3020 0.030388
151.0486 0.022019
155.6620 0.024625
163.8403 0.649989
164.0210 0.047819
164.0353 0.090684
164.0718 71.414554


Name: Hydroxyphenyl Lactate :: Carboxylic Acids :: Polar Metabolites :: 2-hydroxy-3-(4-hydroxyphenyl)propanoic acid)
Synon: $:00in-source
DB#: Human_Plasma000012
Precursor_type: [M-H]-
PrecursorMZ: 181.0507
Comments: "pubchem compound cid=9378" "formula=C9H10O4" "origin=Plasma_MS2_Library_32metabolites.msp" "computed spectral entropy=2.1518059425856095" "computed normalized entropy=0.5686305790012871" "SPLASH=splash10-01q9-1900000000-ad785ea51f5781d93b97" "submitter=submitter = Prasad Phapale (ISAS Dortmund)"
Num Peaks: 50
44.6329 0.046256
44.9981 0.237901
46.4907 0.042586
48.9547 0.040669
52.6606 0.040935
53.3636 0.046599
59.0139 25.086074
59.1183 0.043204
62.4795 0.040786
66.0350 0.050133
71.0139 0.475487
72.9932 17.106138
74.0010 2.907374
75.0089 0.085584
78.9189 22.746816
79.9395 0.047331
80.9169 0.647816
89.0246 0.860073
91.0286 0.047705
93.0347 0.876558
99.0091 0.340951
99.9259 3.979071
101.0245 0.380555
105.0209 0.095020
107.0504 1.288571
109.0294 0.105909
112.9858 0.056338
116.1027 0.049769
119.0352 0.055107
119.0504 35.086028
121.0295 5.739039
121.0508 1.923024
122.0372 0.163459
134.0374 0.354061
135.0453 68.148116
137.0244 0.263016
137.0609 0.977547
137.0971 0.050227
137.9944 0.217726
141.0177 0.099865
141.6310 0.042169
152.0117 0.082391
163.0402 100.000000
172.9895 0.044225
179.0355 0.202915
180.8275 25.517192
180.8421 50.853890
181.0003 0.116378
181.0151 0.044323
181.0506 68.489397


Name: Indole-3-Acetic Acid :: Indoles :: Polar Metabolites :: 2-(1H-indol-3-yl)acetic acid)
Synon: $:00in-source
DB#: Human_Plasma000011
Precursor_type: [M-H]-
PrecursorMZ: 174.0561
Comments: "pubchem compound cid=802" "formula=C10H9NO2" "origin=Plasma_MS2_Library_32metabolites.msp" "computed spectral entropy=0.45487808087462656" "computed normalized entropy=0.11814562139710973" "SPLASH=splash10-001i-0900000000-633f4f2390a9f7ab48af" "submitter=submitter = Prasad Phapale (ISAS Dortmund)"
Num Peaks: 50
40.3810 0.048404
42.4223 0.029624
44.8771 0.025208
47.5784 0.025772
51.3075 0.030807
51.7906 0.025980
53.1497 0.026746
54.2907 0.028801
59.4512 0.026827
61.9883 0.219542
62.6480 0.025933
71.4478 0.027817
72.0910 0.026982
75.0128 0.028706
75.4150 0.026562
77.8664 0.027239
79.7793 0.048475
84.3508 0.029956
87.0088 0.145823
92.5104 0.032564
93.7251 0.028295
94.1619 0.027351
96.9477 0.024863
98.8867 0.026527
99.2235 0.028574
100.0784 0.032543
105.9769 0.025304
109.8091 0.028233
112.0405 0.184167
115.6957 0.028224
117.7448 0.030533
121.6595 0.026263
124.2225 0.027428
125.7904 0.028982
128.0508 4.029520
128.0566 0.043860
128.2588 0.027940
130.0562 0.045104
130.0663 100.000000
137.9594 0.029671
138.4196 0.028944
138.6764 0.026711
146.0614 0.144349
155.8496 0.025672
155.9471 0.115265
156.0384 0.027355
156.0756 0.181962
159.0328 0.196759
173.9943 0.059507
174.0562 2.925897


Name: Xanthine :: Alkaloids and Derivatives :: Polar Metabolites :: 3,7-dihydropurine-2,6-dione
Synon: $:00in-source
DB#: Human_Plasma000010
Precursor_type: [M-H]-
PrecursorMZ: 151.0262
Comments: "pubchem compound cid=1188" "formula=C5H4N4O2" "origin=Plasma_MS2_Library_32metabolites.msp" "computed spectral entropy=0.7856535902281894" "computed normalized entropy=0.20405804439269762" "SPLASH=splash10-0udi-0900000000-5c9db2265b42146e94bd" "submitter=submitter = Prasad Phapale (ISAS Dortmund)"
Num Peaks: 50
40.4234 0.028326
41.9985 0.762585
46.7643 0.026046
49.2223 0.026128
49.3115 0.025876
51.8278 0.026684
52.7233 0.028050
53.1444 0.026105
54.5487 0.026165
55.9456 0.028163
57.7340 0.027924
59.0048 0.030787
59.0139 0.227152
59.7218 0.028377
60.7746 0.033023
60.9172 0.026912
63.9625 0.209984
69.1161 0.027061
69.8414 0.025307
70.4727 0.028411
71.0139 0.242125
73.0294 0.031346
74.5175 0.029951
78.8663 0.026720
78.9860 3.569056
81.1964 0.027004
86.4225 0.027495
86.5030 0.027167
87.0030 0.028227
89.0245 0.382046
89.0607 0.032392
92.9373 0.031357
93.0347 0.031773
93.0528 0.027978
95.3379 0.029381
96.3054 0.030306
100.3952 0.032109
101.0245 0.225015
107.0504 0.314218
108.0205 17.655258
108.1552 0.026100
110.6753 0.027064
125.6873 0.028417
126.0312 0.921029
127.3711 0.030109
132.5891 0.030207
133.0158 0.229451
139.7708 0.029315
141.5584 0.026067
151.0262 100.000000


Name: Uridine :: Pyrimidine Nucleosides :: Polar Metabolites :: 1-[(2R,3R,4S,5R)-3,4-dihydroxy-5-(hydroxymethyl)oxolan-2-yl]pyrimidine-2,4-dione
Synon: $:00in-source
DB#: Human_Plasma000009
Precursor_type: [M-H]-
PrecursorMZ: 243.0622
Comments: "pubchem compound cid=6029" "formula=C9H12N2O6" "origin=Plasma_MS2_Library_32metabolites.msp" "computed spectral entropy=2.0816184973851044" "computed normalized entropy=0.5468355818197851" "SPLASH=splash10-0ik9-1920000000-02239a145b31e6e498dd" "submitter=submitter = Prasad Phapale (ISAS Dortmund)"
Num Peaks: 50
51.5594 0.041379
59.0138 0.581275
63.2712 0.042947
66.0350 4.191241
68.0142 0.698497
69.0347 0.094307
71.0139 0.688211
82.0299 10.098648
83.0141 0.167593
84.0457 0.747348
85.0296 0.316168
87.0090 0.281775
89.0245 0.465481
94.0300 0.694680
94.9316 0.042008
96.0456 1.513774
97.0295 0.045067
100.0041 0.060285
108.0457 2.613541
110.0249 100.000000
110.0608 0.110181
113.0245 0.348839
117.0195 1.063410
120.0456 0.682674
122.0249 5.396727
124.0404 1.864919
126.0562 0.716610
127.0398 0.042040
127.0522 0.091763
128.0358 0.122918
130.0875 0.092499
132.0304 0.463810
134.0250 0.129855
138.0561 0.389883
140.0354 11.511097
142.0660 0.176640
145.0621 0.354726
152.0354 21.277555
164.0355 0.559561
181.1346 0.158769
181.1601 1.664924
182.0462 0.547888
200.0565 17.377632
202.0788 22.229412
225.1497 1.771572
228.8242 0.143555
228.8306 0.160521
231.0479 0.042821
243.0180 0.289059
243.0625 3.777476


Name: Hippurate :: Carboxylic Acids :: Polar Metabolites :: 2-benzamidoacetic acid
Synon: $:00in-source
DB#: Human_Plasma000008
Precursor_type: [M-H]-
PrecursorMZ: 178.0509
Comments: "pubchem compound cid=464" "formula=C9H9NO3" "origin=Plasma_MS2_Library_32metabolites.msp" "computed spectral entropy=1.246612335977293" "computed normalized entropy=0.3203160065182068" "SPLASH=splash10-003r-1900000000-49187f27794f4138e1b8" "submitter=submitter = Prasad Phapale (ISAS Dortmund)"
Num Peaks: 50
40.9794 0.045946
43.4030 0.050041
43.6301 0.044632
46.8318 0.053442
47.9274 0.043700
50.5305 0.051265
51.0814 0.045827
54.9996 0.043689
56.0141 2.608828
56.3019 0.047200
56.8664 0.043815
57.1517 0.046138
57.2777 0.049737
57.4408 0.048350
58.1587 0.053329
59.0138 5.422059
63.4847 0.053774
69.7273 0.051805
75.0088 0.433373
75.4884 0.044362
76.6769 0.044896
77.0399 0.119467
79.9575 9.642232
81.5684 0.046883
85.5436 0.050540
85.7714 0.047524
90.0281 0.069898
93.2095 0.048798
98.3679 0.050256
104.0071 0.074521
106.9811 0.453991
108.3286 0.046067
112.0375 0.044212
114.3562 0.046845
117.0192 0.171794
118.0231 0.519642
122.0045 0.192025
126.7999 0.068160
132.0457 2.736424
134.0613 100.000000
144.1572 0.043901
153.7841 0.043796
160.0409 0.625161
163.0441 0.133775
173.6379 0.052833
174.8640 0.050276
175.1080 0.048161
177.0588 0.062741
178.0269 0.087380
178.0510 54.504000


Name: Oxoglutaric acid :: Keto Acids :: Polar Metabolites :: 2-oxopentanedioic acid
Synon: $:00in-source
DB#: Human_Plasma000007
Precursor_type: [M-H]-
PrecursorMZ: 145.0143
Comments: "pubchem compound cid=51" "formula=C5H6O5" "origin=Plasma_MS2_Library_32metabolites.msp" "computed spectral entropy=1.7931368485637154" "computed normalized entropy=0.4683480803942727" "SPLASH=splash10-0udi-2900000000-86008a91e04b59e08fb9" "submitter=submitter = Prasad Phapale (ISAS Dortmund)"
Num Peaks: 50
41.6486 0.258581
41.8778 0.236212
41.9656 0.237348
42.8158 0.269890
43.0189 2.073385
46.1022 0.240295
46.1636 0.256305
48.1345 0.248795
48.9301 0.243666
50.3303 0.253748
55.1120 0.242075
56.7438 0.236729
57.0347 1.749803
57.9014 0.258304
59.0139 2.152639
62.0657 0.259278
64.6158 0.245805
66.0100 1.172069
66.8125 0.258549
71.0503 0.250056
73.0296 0.339976
73.0409 3.380910
78.7034 0.254883
79.0546 0.241610
83.0140 2.745610
83.0505 0.848316
85.0298 1.102255
85.0662 0.677184
87.0089 3.218950
91.0181 0.356477
92.2809 0.237291
92.5182 0.242674
94.0634 0.232528
95.9972 0.263303
96.9224 0.235626
99.0093 2.868981
99.0815 4.427044
101.0245 100.000000
101.0611 3.880579
117.0207 2.129654
118.0291 0.861608
119.0352 0.877407
126.8698 0.252251
127.0040 4.028311
127.0765 2.442814
127.7611 0.252098
135.8575 0.266679
144.0319 5.528282
144.9651 1.656472
145.0152 7.447418


Name: L-Arginine :: Amino Acids :: Polar Metabolites :: (2S)-2-amino-5-(diaminomethylideneamino)pentanoic acid)
Synon: $:00in-source
DB#: Human_Plasma000006
Precursor_type: [M-H]-
PrecursorMZ: 173.1044
Comments: "pubchem compound cid=6322" "formula=C6H14N4O2" "origin=Plasma_MS2_Library_32metabolites.msp" "computed spectral entropy=1.2421681966144111" "computed normalized entropy=0.3226287210554466" "SPLASH=splash10-0f89-0900000000-33e46c785abb32b045b8" "submitter=submitter = Prasad Phapale (ISAS Dortmund)"
Num Peaks: 50
41.0144 0.312697
42.2156 0.023744
43.4329 0.026959
45.0051 0.024015
45.5221 0.022884
48.2904 0.029186
48.8699 0.022914
50.9034 0.023789
54.0293 0.023401
57.7886 0.023523
58.0413 0.174470
70.1734 0.024702
72.8061 0.024372
74.0360 0.023057
76.9701 0.957935
77.6509 0.023078
82.6328 0.024314
83.2205 0.024746
85.0295 1.672510
86.7667 0.025127
87.4988 0.023616
91.6659 0.024187
94.9808 0.081858
96.1729 0.025596
96.6384 0.022990
103.4212 0.023663
108.7058 0.025428
110.0720 0.048014
111.0090 0.338486
111.0819 0.030007
112.0884 0.141473
113.0726 0.057803
114.0561 1.496427
122.8047 0.025332
129.0196 0.252367
131.0827 100.000000
136.8870 0.023340
136.9371 0.277059
139.9199 0.022923
151.1242 0.024899
153.2067 0.024244
153.5203 0.024601
154.9474 60.679315
156.0780 4.269014
172.9580 5.782739
173.0092 0.028562
173.0452 0.317306
173.0721 0.023519
173.0827 0.030468
173.1044 7.719803


Name: Malic Acid :: Carboxylic Acids :: Polar Metabolites :: (2S)-2-hydroxybutanedioic acid)
Synon: $:00in-source
DB#: Human_Plasma000005
Precursor_type: [M-H]-
PrecursorMZ: 133.0143
Comments: "pubchem compound cid=222656" "formula=C4H6O5" "origin=Plasma_MS2_Library_32metabolites.msp" "computed spectral entropy=1.615075270171312" "computed normalized entropy=0.4218403091113086" "SPLASH=splash10-0159-3900000000-4780e7efa03cc0de04ab" "submitter=submitter = Prasad Phapale (ISAS Dortmund)"
Num Peaks: 50
40.5184 0.177593
43.0189 0.849180
44.6279 0.205693
45.1494 0.174582
45.7336 0.174461
46.0033 0.183593
46.7091 0.179361
46.8920 0.173669
47.9914 0.180214
48.6715 0.195535
52.7165 0.189065
53.3759 0.192909
56.5449 0.167173
59.0138 2.487177
60.9140 0.167831
64.4103 0.181916
64.5266 0.184996
66.0097 0.219713
68.2724 0.167074
70.5798 0.176820
71.0139 33.905356
71.8151 0.172075
72.9932 8.538737
73.0295 1.103641
73.2034 0.183441
73.4567 0.171662
75.8299 0.177140
77.8866 0.171892
84.8615 0.176696
87.0089 1.540818
89.0245 7.309714
95.6091 0.174141
96.6890 0.183019
96.9696 0.955339
97.4055 0.197400
98.6549 0.176372
99.3321 0.171904
101.8225 0.186321
105.3905 0.186462
106.0286 0.275907
106.0412 0.184652
106.6395 0.171841
108.6093 0.176647
108.7417 0.182630
115.0038 100.000000
115.0091 0.375324
115.0236 0.243995
130.3010 0.205524
132.8680 1.145044
133.0143 57.507454


Name: Maleic Acid :: Carboxylic Acids :: Polar Metabolites :: (Z)-but-2-enedioic acid)
Synon: $:00in-source
DB#: Human_Plasma000004
Precursor_type: [M-H]-
PrecursorMZ: 115.0038
Comments: "pubchem compound cid=444266" "formula=C4H4O4" "origin=Plasma_MS2_Library_32metabolites.msp" "computed spectral entropy=1.6395949298911048" "computed normalized entropy=0.433275043934154" "SPLASH=splash10-00di-9100000000-f9ee953c5aa495704aab" "submitter=submitter = Prasad Phapale (ISAS Dortmund)"
Num Peaks: 50
40.5822 0.390085
41.3621 0.419926
41.5406 0.435819
42.0374 0.396857
43.0188 0.411561
43.0388 0.440894
44.0643 0.442297
44.3136 0.398029
44.4627 0.434673
45.5957 0.391373
45.6023 0.407806
45.6759 0.417626
47.5304 0.389792
48.4166 0.393912
49.4421 0.391026
49.5839 0.431312
49.6305 0.475148
51.6739 0.447403
52.8248 0.392556
54.8937 0.433821
56.5636 0.413803
59.0138 18.856809
59.7615 0.391223
59.9762 0.409645
60.7135 0.395861
66.2625 0.429489
67.0584 0.437828
68.9958 13.933858
69.0347 0.454883
71.0139 100.000000
71.0503 26.506533
73.0296 0.624643
73.7079 0.407623
74.4869 0.438574
84.6853 0.423867
84.7943 0.444704
85.0293 0.991500
85.2017 0.412952
88.0821 0.477734
88.8823 0.390395
90.6673 0.431925
93.7612 0.404184
97.0297 4.658082
97.7459 0.439474
103.1305 0.463638
103.6691 0.394128
107.3816 0.460276
114.9362 4.750622
114.9899 1.473871
115.0037 22.610957


Name: Oxoglutaric acid :: Keto Acids :: Polar Metabolites :: 2-oxopentanedioic acid)
Synon: $:00in-source
DB#: Human_Plasma000003
Precursor_type: [M-H]-
PrecursorMZ: 145.0143
Comments: "pubchem compound cid=51" "formula=C5H6O5" "origin=Plasma_MS2_Library_32metabolites.msp" "computed spectral entropy=1.6416947648422235" "computed normalized entropy=0.4312688002295884" "SPLASH=splash10-0udi-1900000000-2ae7a71645e48389c2fb" "submitter=submitter = Prasad Phapale (ISAS Dortmund)"
Num Peaks: 50
41.9983 0.372044
43.0188 1.201659
44.4914 0.145205
45.6330 0.129721
46.0519 0.125397
46.6676 0.126679
48.9808 0.123356
49.9610 0.130921
51.2794 0.127582
52.3616 0.140705
57.0345 0.125220
59.0139 1.063129
64.0067 0.124861
64.8308 0.126664
65.7559 0.133829
65.9986 0.229010
66.0099 3.255222
71.0140 0.252307
71.0504 0.538821
73.0299 0.480979
73.0409 3.544881
79.5712 0.123273
83.0140 3.641415
83.0505 0.441392
83.2283 0.128855
84.0403 0.126988
85.0299 0.439466
86.4939 0.127233
87.0089 3.284227
88.1638 0.125821
90.0099 0.167856
91.0176 0.258954
99.0091 2.757404
99.0816 0.455559
100.0285 0.132285
101.0245 100.000000
101.0610 5.995768
106.1050 0.129748
114.3664 0.125490
117.0209 4.472682
118.0287 1.074622
119.0357 0.127756
125.1090 0.128967
127.0039 6.499579
127.0766 0.134884
138.6349 0.122841
140.2236 0.134148
144.0317 10.015452
144.9647 3.814045
145.0152 6.937449


Name: Pyridoxic Acid :: Pyridines :: Polar Metabolites :: 3-hydroxy-5-(hydroxymethyl)-2-methylpyridine-4-carboxylic acid)
Synon: $:00in-source
DB#: Human_Plasma000002
Precursor_type: [M-H]-
PrecursorMZ: 182.0459
Comments: "pubchem compound cid=6723" "formula=C8H9NO4" "origin=Plasma_MS2_Library_32metabolites.msp" "computed spectral entropy=1.0773176907722117" "computed normalized entropy=0.2798120493598003" "SPLASH=splash10-000i-0900000000-e1f1ef23753a40caadf0" "submitter=submitter = Prasad Phapale (ISAS Dortmund)"
Num Peaks: 50
43.5805 0.030011
44.4652 0.031873
44.4905 0.037435
45.5876 0.029747
47.9994 0.029316
50.6021 0.029753
52.5810 0.030738
54.6184 0.031898
55.7326 0.028577
56.3040 0.029474
59.0137 0.029466
66.2548 0.029201
66.3643 0.032419
68.1010 0.031764
72.9533 0.029181
76.4602 0.028297
79.2559 0.029401
79.3477 0.032385
81.4752 0.030012
92.0508 0.500007
92.1442 0.028642
94.0300 0.316934
95.5886 0.030060
96.1027 0.029881
97.7241 0.030432
98.8289 0.029953
98.9093 0.028844
100.9625 0.029683
108.0456 18.166645
110.0611 0.185460
115.9052 0.030255
118.1171 0.030951
119.4663 0.029597
120.0457 1.154267
123.0328 0.293668
126.1366 0.028648
126.5653 0.032463
130.8147 0.030955
136.0406 0.429411
138.0451 0.084911
138.0562 100.000000
139.7055 0.028563
147.3716 0.032825
149.3082 0.030371
155.8463 0.030477
160.9888 0.029540
175.6498 0.028905
181.9918 3.128647
182.0090 0.070420
182.0460 25.098012


Name: Pyridoxic Acid :: Pyridines :: Polar Metabolites :: 3-hydroxy-5-(hydroxymethyl)-2-methylpyridine-4-carboxylic acid)
Synon: $:00in-source
DB#: Human_Plasma000001
Precursor_type: [M-H]-
PrecursorMZ: 182.0459
Comments: "pubchem compound cid=6723" "formula=C8H9NO4" "origin=Plasma_MS2_Library_32metabolites.msp" "computed spectral entropy=1.1035821484146202" "computed normalized entropy=0.28356451836956076" "SPLASH=splash10-000i-0900000000-7f4326e9c3c2864c13eb" "submitter=submitter = Prasad Phapale (ISAS Dortmund)"
Num Peaks: 50
41.9880 0.019643
43.4745 0.019529
44.0477 0.019441
45.7470 0.018649
50.5770 0.019460
50.8047 0.021102
52.8378 0.019908
57.7774 0.023946
62.8964 0.019995
63.6624 0.018895
64.0022 0.019436
65.7360 0.019863
65.9199 0.019371
67.1361 0.019970
68.2543 0.021388
77.4478 0.018645
79.5715 0.021313
81.6387 0.019464
81.9532 0.077574
92.0507 0.513825
92.5303 0.018992
94.0300 0.303318
107.5410 0.018612
108.0456 18.143732
110.0612 0.245202
111.0456 0.019136
116.9286 0.018934
117.0483 0.018844
118.0299 0.041315
120.0457 1.142629
122.0405 0.019324
123.0328 0.308665
124.6078 0.019165
126.9819 0.019060
129.9126 0.026761
130.0536 0.018692
130.6267 0.020378
132.6030 0.019406
135.1660 0.023669
136.0406 0.392765
138.0450 0.229645
138.0562 100.000000
154.4758 0.019051
154.5609 0.019068
156.1363 0.020431
162.1158 0.018623
166.1342 0.020123
179.1754 0.018919
181.9919 5.741981
182.0460 24.790252

